40	100	100	100
11	62	100
34	43	100
58	92	100
29	72	100
4	2	100
21	45	100
10	73	100
13	34	100
50	56	100
35	75	100
17	79	100
42	41	100
62	58	100
31	66	100
48	8	100
58	44	100
10	78	100
25	86	100
95	24	100
23	47	100
79	71	100
31	54	100
17	91	100
50	52	100
15	64	100
97	96	100
24	52	100
23	15	100
74	77	100
37	44	100
75	56	100
18	1	100
78	41	100
63	80	100
52	23	100
61	64	100
41	24	100
97	43	100
55	13	100
77	92	100
